Route #1: 67 132 139 96 59 86 93 118 182 45 77 33 13 12 73 32 50 10 153 100 141 103 74 81 130 112 120 125 109 149 152 95 129 187 60 173
Route #2: 14 186 184 110 148 29 2 138 143 128 126 90 25 48 145 127 5 71 193 20 194 190 80 158 101 91 106 159 6 42 144 62 36 122 188 136
Route #3: 107 35 116 155 175 147 54 44 161 197 146 83 19 9 89 179
Route #4: 200 51 41 21 65 183 3 199 189 47 195 156 79 15 4 23 11 142 196 28
Route #5: 177 134 22 78 102 98 76 8 191 150 43 151 97 31 69 181 172 75 154 168 163 87 170 165 58 66 52 105
Route #6: 114 34 157 137 198 104 64 174 164 57 113 131 169 192 18 84 27 53 56 185 180 37 123 121 124 111 115 26 140 55 85 135 1 176 46 68
Route #7: 171 63 99 70 162 94 30 108 133 16 61 72 24 92 49 160 117 82 17 39 88 166 38 119 40 167 7 178
Cost 1695.0
